500
1000
300
300
299
299
298
298
298
295
295
295
294
294
294
294
293
293
293
292
292
292
292
292
290
290
290
288
288
288
287
287
287
287
287
286
286
286
285
285
285
284
284
283
283
283
283
283
282
282
282
282
281
281
280
280
279
279
279
278
278
277
277
277
276
275
275
275
274
274
274
274
273
273
272
272
271
271
271
271
271
270
270
270
270
270
269
269
269
269
268
268
268
268
268
268
267
266
266
266
266
266
265
265
264
264
264
263
262
262
261
261
261
261
260
260
259
259
259
259
258
258
257
256
256
255
255
254
253
253
253
252
252
251
251
251
251
250
250
250
250
250
249
249
248
248
247
247
247
246
246
246
245
244
244
244
242
241
241
241
241
240
239
239
239
238
238
238
238
237
236
236
236
236
236
236
236
235
235
235
235
235
234
234
234
234
233
233
233
231
231
231
230
229
229
229
228
228
228
227
227
226
226
225
225
224
224
224
223
223
222
222
222
221
221
221
220
220
220
220
219
219
219
219
219
218
218
217
216
216
216
215
215
215
214
213
213
212
211
211
211
211
211
210
210
210
209
208
207
207
206
205
205
205
204
203
203
201
201
201
200
200
199
199
199
199
198
197
197
197
197
196
196
196
195
194
194
193
193
193
193
192
192
190
189
189
188
188
188
188
188
188
187
187
187
185
185
184
183
182
182
182
182
182
182
181
181
181
180
180
179
179
179
179
179
178
178
178
176
175
175
175
174
173
173
173
173
173
172
172
172
172
172
170
169
169
169
169
169
168
168
167
167
166
166
166
166
165
164
164
164
163
162
162
159
159
159
157
157
157
157
156
156
156
156
156
156
156
155
154
153
152
152
152
152
152
152
152
151
151
150
150
150
149
149
148
148
145
145
145
144
144
144
143
143
142
142
142
142
142
142
141
141
141
140
140
140
139
139
138
138
137
137
137
137
136
136
135
134
134
133
133
133
133
133
132
132
130
130
130
130
129
129
128
128
128
128
127
127
127
126
126
125
125
125
125
125
125
124
124
123
123
123
122
122
122
121
120
120
120
120
120
120
119
119
119
118
117
117
117
116
116
116
116
115
115
115
114
113
113
112
112
112
112
110
110
109
109
109
108
108
108
108
107
107
107
105
105
105
104
103
103
